NAME : P = NP
TYPE : TSP
DIMENSION : 70
EDGE_WEIGHT_TYPE : EUC_2D
NODE_COORD_SECTION
0 16 483
1 226 274
2 166 337
3 110 62
4 705 379
5 173 607
6 374 246
7 34 419
8 12 234
9 804 17
10 232 681
11 104 108
12 188 166
13 0 1
14 452 184
15 88 20
16 144 268
17 135 651
18 25 246
19 67 0
20 9 885
21 104 35
22 452 141
23 144 179
24 276 389
25 83 143
26 77 4
27 177 100
28 704 326
29 211 917
30 49 156
31 407 284
32 2 92
33 399 30
34 173 562
35 226 553
36 13 47
37 120 43
38 108 19
39 57 325
40 332 320
41 155 38
42 185 19
43 81 344
44 103 220
45 856 112
46 2 19
47 485 133
48 503 112
49 65 302
50 107 377
51 15 885
52 94 306
53 2 775
54 316 320
55 694 726
56 148 419
57 510 473
58 27 671
59 305 17
60 56 389
61 111 30
62 343 425
63 425 671
64 0 194
65 174 849
66 196 518
67 44 271
68 94 186
69 54 195